CapLotSizing_PM/src/Instancias/NCLSHT/6i6p6m/NBA07.OUT
 CG ITER, OVMR, OVMRUB =           1   14768.9277344    7878.8994141
 CG ITER, OVMR, OVMRUB =           2   11054.2744141    7878.8994141
 CG ITER, OVMR, OVMRUB =           3   11054.2744141    7878.8994141
 CG ITER, OVMR, OVMRUB =           4   11054.2744141    7878.8994141
 CG ITER, OVMR, OVMRUB =           5   11054.2744141    7878.8994141
 CG ITER, OVMR, OVMRUB =           6   11054.2744141    7878.8994141
 CG ITER, OVMR, OVMRUB =           7   11054.2744141    7878.8994141
 CG ITER, OVMR, OVMRUB =           8   11054.2744141    7878.8994141
 CG ITER, OVMR, OVMRUB =           9   11054.2744141    7878.8994141
 CG ITER, OVMR, OVMRUB =          10   11054.2744141    7878.8994141
OVLB =   11054.2744141 OVLUB =    7878.8994141 TIME =       0.6200000
